20
1 0 3
2 0 5
2 1 1
3 1 3
4 0 6
4 2 3
5 0 5
5 1 7
5 3 2
6 4 1
7 1 5
7 3 8
7 5 4
8 3 1
8 4 7
9 0 5
9 2 6
9 5 5
9 8 4
10 0 1
10 3 2
10 4 2
10 5 6
10 6 8
10 7 8
11 0 7
11 1 4
11 3 4
11 7 2
12 8 6
12 9 3
12 10 4
13 0 7
13 2 6
13 4 5
13 6 2
13 8 1
13 9 8
13 12 8
14 1 3
14 2 5
14 9 3
15 3 1
15 4 8
15 6 7
15 7 7
15 10 3
15 11 8
15 13 4
15 14 1
16 1 7
16 3 6
16 6 8
16 7 7
16 11 3
16 12 4
16 13 6
16 15 6
17 4 3
17 6 7
17 7 3
17 10 8
17 11 5
17 12 7
17 15 7
17 16 8
18 3 5
18 4 7
18 8 1
18 10 8
18 14 8
18 15 8
18 17 2
19 0 6
19 1 3
19 3 7
19 5 8
19 8 4
19 9 3
19 14 3
19 15 4
19 16 4
